NAME : cgl_60.10144.tour
COMMENT : Length = 10144
COMMENT : Found by LKH-3 [Keld Helsgaun] Fri Nov  8 17:38:20 2024
TYPE : TOUR
DIMENSION : 61
TOUR_SECTION
57
58
48
51
56
55
50
52
49
53
54
47
46
45
44
20
21
43
22
26
24
25
27
23
28
42
29
30
31
37
36
40
38
34
39
32
33
35
41
61
5
4
3
2
1
11
6
7
10
9
8
12
13
14
15
16
17
18
19
59
60
-1
EOF
